c A SAT instance generated from a 3-CNF formula that had 16 clauses and 8 variables
p cnf 8 16
3 4 2 0
2 7 5 0
-7 1 8 0
-4 -7 -1 0
1 -6 -3 0
6 -5 1 0
-5 4 7 0
3 -4 1 0
-2 1 -3 0
-2 5 4 0
5 -2 -7 0
-1 -3 -4 0
4 2 8 0
4 -1 2 0
-2 -7 1 0
-2 -7 5 0
